\ENCODING=ISO-8859-1
\Problem name: IloCplex

Minimize
 obj: x1 + x2 + x3 + x4 + x5 + x6 + x7 + x8 + 1000000000000 x9 + x10 + x11
      + x12 + x13 + x14 + x15 + x16 + x17 + x18 + x19 + x20 + x21 + x22 + x23
      + x24 + x25 + x26 + x27 + x28 + x29 + x30 + x31 + 1000000000000 x32 + x33
      + x34 + x35 + x36 + x37 + x38 + x39 + x40 + x41 + x42 + x43 + x44 + x45
      + x46 + x47 + x48 + x49 + x50 + x51 + x52 + x53 + x54 + x55 + x56 + x57
      + x58 + x59 + x60 + x61 + x62 + x63 + x64 + x65 + x66 + x67 + x68 + x69
      + x70 + x71 + x72 + x73 + x74 + x75 + x76 + x77 + x78 + x79 + x80 + x81
      + x82 + x83 + x84 + x85 + x86 + x87 + x88 + x89 + x90 + x91 + x92 + x93
      + x94 + x95 + x96 + x97 + x98 + x99 + x100 + x101 + x102 + x103 + x104
      + x105 + x106 + x107 + x108 + x109 + x110 + x111 + x112 + x113 + x114
      + x115 + x116 + x117 + x118 + x119 + x120 + x121 + x122 + x123 + x124
      + x125 + x126 + x127 + x128 + x129 + x130 + x131 + x132 + x133 + x134
      + x135 + x136 + x137 + x138 + x139 + x140 + x141 + x142 + x143 + x144
      + x145 + x146 + x147 + x148 + x149 + x150 + x151 + x152 + x153 + x154
      + x155 + x156 + x157 + x158 + x159 + x160 + x161 + x162 + x163 + x164
      + x165 + x166 + x167 + x168 + x169 + x170 + x171 + x172 + x173 + x174
      + x175 + x176 + x177 + x178 + x179 + x180 + x181 + x182 + x183 + x184
      + x185 + x186 + x187 + x188 + x189 + x190 + x191 + x192 + x193 + x194
      + x195 + x196 + x197 + x198 + x199 + x200 + x201 + x202 + x203 + x204
      + x205 + x206 + x207 + x208 + x209 + x210 + x211 + x212 + x213 + x214
      + x215 + x216 + x217 + x218 + x219 + x220 + x221 + x222 + x223 + x224
      + x225 + x226
Subject To
 c1:  x1 + x197  = 1
 c2:  x2 + x188 + x195  = 1
 c3:  x3 + x182 + x187 + x194  = 1
 c4:  x4 + x179 + x181 + x213  = 1
 c5:  x5 + x170 + x175  = 1
 c6:  x6 + x176 + x177  = 1
 c7:  x7 + x166 + x168 + x199  = 1
 c8:  x8 + x163 + x165 + x167 + x214  = 1
 c9:  x9 + x157 + x159 + x164 + x174 + x215 + x216 + x217 + x218 + x219 + x220
      + x221 + x222 + x223 + x224 + x225 + x226  = 1
 c10: x10 + x154 + x156 + x173 + x206  = 1
 c11: x11 + x146 + x147 + x162 + x212  = 1
 c12: x12 + x149 + x151 + x153 + x190 + x210  = 1
 c13: x13 + x141 + x145 + x183 + x209  = 1
 c14: x14 + x134 + x135 + x137 + x158 + x161 + x196  = 1
 c15: x15 + x130 + x133 + x143 + x178 + x202 + x203 + x205 + x208  = 1
 c16: x16 + x122 + x123 + x124 + x127 + x155 + x160 + x180 + x201  = 1
 c17: x17 + x116 + x117 + x118 + x139 + x140 + x184 + x185 + x189 + x198  = 1
 c18: x18 + x114 + x115 + x200  = 1
 c19: x19 + x108 + x114 + x148  = 1
 c20: x20 + x105 + x108 + x115 + x186 + x191 + x198  = 1
 c21: x21 + x103 + x105 + x189  = 1
 c22: x22 + x100 + x103 + x121 + x169 + x172 + x180 + x191 + x193 + x196  = 1
 c23: x23 + x96 + x100 + x102 + x111 + x129 + x142 + x144 + x148 + x152 + x186
      + x200  = 1
 c24: x24 + x94 + x96 + x97 + x107 + x110 + x120 + x121 + x125 + x132 + x150
      + x161 + x211  = 1
 c25: x25 + x91 + x94 + x95 + x128 + x136 + x145 + x171 + x184 + x192 + x205
       = 1
 c26: x26 + x90 + x91 + x92 + x101 + x112 + x119 + x126 + x130 + x152 + x204
      + x207 + x209  = 1
 c27: x27 + x87 + x88 + x90 + x104 + x111 + x131 + x136 + x139 + x150 + x169
      + x192 + x201 + x207 + x208  = 1
 c28: x28 + x80 + x88 + x89 + x93 + x97 + x99 + x117 + x160 + x172 + x203
      + x204 + x211  = 1
 c29: x29 + x79 + x80 + x82 + x83 + x84 + x85 + x95 + x98 + x101 + x106 + x113
      + x116 + x125 + x129 + x138 + x142 + x147 + x155 + x192 + x193 + x204
       = 1
 c30: x30 + x69 + x75 + x77 + x78 + x79 + x86 + x87 + x106 + x120 + x124 + x138
      + x153 + x171 + x202 + x206  = 1
 c31: x31 + x72 + x73 + x74 + x75 + x76 + x81 + x86 + x89 + x98 + x109 + x119
      + x126 + x128 + x132 + x133 + x140 + x141 + x152 + x158 + x173  = 1
 c32: x32 + x64 + x70 + x71 + x72 + x73 + x74 + x78 + x85 + x88 + x93 + x98
      + x102 + x107 + x112 + x127 + x135 + x138 + x157 + x178 + x185 + x207
      + x210 + x215 + x216 + x217 + x218 + x219 + x220 + x221 + x222 + x223
      + x224 + x225 + x226  = 1
 c33: x33 + x64 + x68 + x70 + x71 + x75 + x82 + x83 + x84 + x93 + x99 + x104
      + x106 + x109 + x111 + x112 + x122 + x125 + x156 + x174 + x178 + x190
      + x211  = 1
 c34: x34 + x65 + x68 + x69 + x70 + x76 + x77 + x82 + x91 + x99 + x107 + x109
      + x113 + x119 + x131 + x132 + x134 + x138 + x144 + x150 + x154 + x162
      + x168 + x193  = 1
 c35: x35 + x65 + x66 + x67 + x68 + x69 + x71 + x73 + x81 + x85 + x86 + x92
      + x104 + x110 + x113 + x122 + x131 + x136 + x142 + x143 + x149 + x164
      + x169 + x170  = 1
 c36: x36 + x60 + x62 + x64 + x65 + x66 + x67 + x74 + x76 + x84 + x86 + x97
      + x118 + x120 + x126 + x127 + x137 + x144 + x163 + x171 + x179 + x212
       = 1
 c37: x37 + x55 + x56 + x57 + x58 + x59 + x60 + x61 + x62 + x63 + x64 + x73
      + x76 + x78 + x81 + x83 + x87 + x92 + x95 + x99 + x101 + x121 + x128
      + x137 + x143 + x151 + x167 + x183 + x212 + x213  = 1
 c38: x38 + x53 + x54 + x55 + x56 + x57 + x58 + x59 + x60 + x61 + x62 + x63
      + x66 + x67 + x68 + x71 + x72 + x74 + x77 + x81 + x84 + x87 + x92 + x94
      + x102 + x103 + x144 + x146 + x155 + x165 + x185 + x187  = 1
 c39: x39 + x51 + x52 + x53 + x54 + x57 + x58 + x59 + x61 + x62 + x65 + x66
      + x69 + x72 + x77 + x82 + x83 + x89 + x93 + x95 + x96 + x109 + x112
      + x119 + x123 + x140 + x141 + x148 + x151 + x171 + x182 + x188  = 1
 c40: x40 + x51 + x52 + x53 + x54 + x55 + x58 + x60 + x61 + x63 + x65 + x67
      + x68 + x72 + x76 + x78 + x81 + x83 + x85 + x90 + x100 + x113 + x117
      + x133 + x146 + x163 + x181 + x194 + x195  = 1
 c41: x41 + x51 + x52 + x53 + x54 + x55 + x56 + x59 + x61 + x63 + x64 + x70
      + x75 + x77 + x80 + x85 + x89 + x90 + x99 + x102 + x107 + x110 + x120
      + x123 + x126 + x128 + x129 + x132 + x135 + x136 + x159 + x160 + x166
      + x177 + x193 + x214  = 1
 c42: x42 + x51 + x52 + x53 + x54 + x55 + x56 + x57 + x60 + x62 + x64 + x68
      + x77 + x78 + x80 + x86 + x92 + x106 + x109 + x110 + x118 + x123 + x125
      + x128 + x129 + x131 + x134 + x143 + x146 + x154 + x167 + x172 + x175
      + x199 + x201 + x210  = 1
 c43: x43 + x51 + x52 + x53 + x54 + x55 + x56 + x57 + x58 + x61 + x63 + x65
      + x67 + x69 + x74 + x78 + x79 + x81 + x84 + x90 + x96 + x102 + x104
      + x110 + x112 + x113 + x116 + x118 + x124 + x131 + x137 + x149 + x164
      + x166 + x172 + x176 + x208  = 1
 c44: x44 + x51 + x52 + x53 + x54 + x55 + x56 + x57 + x58 + x59 + x62 + x63
      + x66 + x67 + x69 + x70 + x72 + x76 + x84 + x92 + x93 + x95 + x98 + x100
      + x126 + x131 + x135 + x139 + x144 + x150 + x156 + x176 + x203 + x214
       = 1
 c45: x45 + x51 + x52 + x53 + x54 + x55 + x56 + x57 + x58 + x59 + x60 + x63
      + x65 + x66 + x70 + x71 + x73 + x75 + x77 + x79 + x83 + x88 + x101 + x110
      + x113 + x118 + x119 + x120 + x130 + x158 + x185 + x197  = 1
 c46: x46 + x51 + x52 + x53 + x54 + x55 + x56 + x57 + x58 + x59 + x60 + x61
      + x64 + x66 + x72 + x79 + x81 + x82 + x89 + x91 + x97 + x98 + x109 + x110
      + x111 + x123 + x132 + x142 + x151 + x158 + x159 + x162 + x169 + x171
      + x175 + x183 + x186 + x202 + x205 + x207 + x214  = 1
 c47: x47 + x51 + x52 + x53 + x54 + x55 + x56 + x57 + x58 + x59 + x60 + x61
      + x62 + x65 + x67 + x70 + x71 + x73 + x75 + x78 + x80 + x82 + x87 + x93
      + x97 + x101 + x102 + x104 + x107 + x113 + x118 + x123 + x124 + x126
      + x134 + x140 + x144 + x157 + x183 + x184 + x190 + x191  = 1
 c48: x48 + x51 + x52 + x53 + x56 + x57 + x58 + x59 + x60 + x61 + x62 + x63
      + x66 + x67 + x69 + x71 + x74 + x80 + x83 + x89 + x94 + x98 + x101 + x104
      + x106 + x107 + x109 + x121 + x122 + x129 + x133 + x139 + x165 + x174
      + x181 + x183 + x184 + x185 + x186 + x190 + x191 + x199 + x200 + x215
       = 1
 c49: x49 + x51 + x52 + x54 + x56 + x58 + x59 + x60 + x61 + x62 + x63 + x66
      + x67 + x68 + x70 + x73 + x74 + x76 + x79 + x82 + x85 + x89 + x94 + x105
      + x116 + x127 + x134 + x149 + x159 + x162 + x165 + x172 + x177 + x200
      + x202 + x211 + x216 + x220 + x221 + x222 + x223 + x224 + x225 + x226
       = 1
 c50: x50 + x51 + x55 + x57 + x59 + x60 + x61 + x62 + x63 + x65 + x67 + x68
      + x72 + x74 + x79 + x80 + x87 + x91 + x96 + x104 + x108 + x116 + x128
      + x142 + x147 + x159 + x199 + x207 + x217 + x219  = 1
End
